50
0,6,3,10
1,8,3,10
2,3,3,10
3,5,3,10
4,4,3,10
5,4,3,10
6,4,3,10
7,5,3,10
8,6,3,10
9,7,3,10
10,6,3,10
11,8,3,10
12,4,3,10
13,9,3,10
14,3,3,10
15,8,3,10
16,6,3,10
17,7,3,10
18,4,3,10
19,4,3,10
20,9,3,10
21,10,3,10
22,5,3,10
23,8,3,10
24,9,3,10
25,9,3,10
26,4,3,10
27,3,3,10
28,4,3,10
29,9,3,10
30,4,3,10
31,6,3,10
32,10,3,10
33,7,3,10
34,8,3,10
35,5,3,10
36,8,3,10
37,9,3,10
38,3,3,10
39,8,3,10
40,10,3,10
41,8,3,10
42,5,3,10
43,9,3,10
44,4,3,10
45,6,3,10
46,9,3,10
47,5,3,10
48,5,3,10
49,4,3,10
49
0,1,2
48,49
47,49
46,49
2,3,46
1,4,6,9,11,42
3,5,18,20
6,7,17,23,44,48
4,8,10
9,12,14,19
7,13,38
10,15,25
12,16,24
19,21,28
18,22
22,26
14,27
8,29,35
27,30
5,31
13,32,36
30,33
26,34
25,37,41
28,39
31,40
38,43
21,45
15,47
11,28
16,40
17,47
20,21
23,40
24,36
29,32
32,47
33,39
34,43
35,48
36,37
37,45
39,46
40,47
41,45
42,48
43,47
44,47
45,47
